21
Cyclotrimethylene-trinitramine
C          2.42417        4.14118        4.71196
C          0.66305        2.82406        3.63571
C          1.96016        4.41317        2.31207
H          3.16500        3.40739        4.52562
H          2.65354        4.70830        5.61580
H         -0.34405        2.45022        3.79099
H          1.33797        1.99999        3.41831
H          2.70495        3.66433        2.05292
H          1.89821        5.12960        1.51318
N          2.32135        5.04626        3.56610
N          1.15606        3.46757        4.85867
N          0.70656        3.72914        2.49413
N          2.97913        6.22565        3.58323
N          0.20432        4.07984        5.66934
N         -0.43896        4.48493        2.22533
O          2.99231        6.86570        2.55731
O          3.49191        6.58213        4.64556
O         -0.91351        3.63655        5.63508
O          0.59846        4.94326        6.41469
O         -1.47770        4.09025        2.68153
O         -0.31110        5.42936        1.48855
